WARNING: for repeatability, setting FPU to use double precision
============================[ Problem Statistics ]=============================
|                                                                             |
|  Number of variables:            50                                         |
|  Number of clauses:             218                                         |
|  Parse time:                   0.00 s                                       |
|                                                                             |
============================[ Search Statistics ]==============================
| Conflicts |          ORIGINAL         |          LEARNT          | Progress |
|           |    Vars  Clauses Literals |    Limit  Clauses Lit/Cl |          |
===============================================================================
===============================================================================
restarts              : 1
conflicts             : 73             (96689 /sec)
decisions             : 93             (0.00 % random) (123179 /sec)
propagations          : 1015           (1344371 /sec)
conflict literals     : 279            (16.96 % deleted)
Memory used           : 20.00 MB
CPU time              : 0.000755 s

UNSATISFIABLE
